# Objective value = 55
C 55
x(1,i,0,3,0) 1
x(2,i,0,2,0) 1
x(3,i,0,3,0) 1
x(4,i,0,2,0) 1
x(5,i,0,3,0) 1
x(6,i,0,2,0) 1
x(1,5,20,f,26) 0
x(1,5,21,f,27) 0
x(1,5,22,f,28) 0
x(1,5,23,f,29) 0
x(1,5,24,f,30) 0
x(1,5,25,f,31) 0
x(1,5,26,f,32) 0
x(1,5,27,f,33) 0
x(1,5,28,f,34) 0
x(1,5,29,f,35) 0
x(1,5,30,f,36) 0
x(1,5,31,f,37) 0
x(1,5,32,f,38) 0
x(1,5,33,f,39) 0
x(1,5,34,f,40) 0
x(1,5,35,f,41) 0
x(1,5,36,f,42) 0
x(1,5,37,f,43) 0
x(1,5,38,f,44) 0
x(1,5,39,f,45) 0
x(1,5,40,f,46) 0
x(1,5,41,f,47) 0
x(1,5,42,f,48) 0
x(1,5,43,f,49) 0
x(1,5,44,f,50) 0
x(1,5,45,f,51) 0
x(1,5,46,f,52) 0
x(1,5,47,f,53) 0
x(1,5,48,f,54) 0
x(1,5,49,f,55) 1
x(1,5,50,f,56) 0
x(1,5,51,f,57) 0
x(1,5,52,f,58) 0
x(1,5,53,f,59) 0
x(2,4,43,f,47) 0
x(2,4,44,f,48) 0
x(2,4,45,f,49) 0
x(2,4,46,f,50) 0
x(2,4,47,f,51) 0
x(2,4,48,f,52) 1
x(2,4,49,f,53) 0
x(2,4,50,f,54) 0
x(2,4,51,f,55) 0
x(2,4,52,f,56) 0
x(2,4,53,f,57) 0
x(2,4,54,f,58) 0
x(2,4,55,f,59) 0
x(3,5,27,f,34) 0
x(3,5,28,f,35) 0
x(3,5,29,f,36) 0
x(3,5,30,f,37) 0
x(3,5,31,f,38) 0
x(3,5,32,f,39) 0
x(3,5,33,f,40) 0
x(3,5,34,f,41) 0
x(3,5,35,f,42) 0
x(3,5,36,f,43) 0
x(3,5,37,f,44) 0
x(3,5,38,f,45) 0
x(3,5,39,f,46) 0
x(3,5,40,f,47) 0
x(3,5,41,f,48) 0
x(3,5,42,f,49) 1
x(3,5,43,f,50) 0
x(3,5,44,f,51) 0
x(3,5,45,f,52) 0
x(3,5,46,f,53) 0
x(3,5,47,f,54) 0
x(3,5,48,f,55) 0
x(3,5,49,f,56) 0
x(3,5,50,f,57) 0
x(3,5,51,f,58) 0
x(3,5,52,f,59) 0
x(4,6,26,f,35) 0
x(4,6,27,f,36) 0
x(4,6,28,f,37) 0
x(4,6,29,f,38) 0
x(4,6,30,f,39) 0
x(4,6,31,f,40) 0
x(4,6,32,f,41) 0
x(4,6,33,f,42) 0
x(4,6,34,f,43) 0
x(4,6,35,f,44) 0
x(4,6,36,f,45) 0
x(4,6,37,f,46) 0
x(4,6,38,f,47) 0
x(4,6,39,f,48) 0
x(4,6,40,f,49) 0
x(4,6,41,f,50) 0
x(4,6,42,f,51) 0
x(4,6,43,f,52) 0
x(4,6,44,f,53) 0
x(4,6,45,f,54) 0
x(4,6,46,f,55) 1
x(4,6,47,f,56) 0
x(4,6,48,f,57) 0
x(4,6,49,f,58) 0
x(4,6,50,f,59) 0
x(5,4,24,f,25) 0
x(5,4,25,f,26) 0
x(5,4,26,f,27) 0
x(5,4,27,f,28) 0
x(5,4,28,f,29) 0
x(5,4,29,f,30) 0
x(5,4,30,f,31) 0
x(5,4,31,f,32) 0
x(5,4,32,f,33) 0
x(5,4,33,f,34) 0
x(5,4,34,f,35) 0
x(5,4,35,f,36) 0
x(5,4,36,f,37) 0
x(5,4,37,f,38) 0
x(5,4,38,f,39) 0
x(5,4,39,f,40) 0
x(5,4,40,f,41) 0
x(5,4,41,f,42) 0
x(5,4,42,f,43) 0
x(5,4,43,f,44) 0
x(5,4,44,f,45) 0
x(5,4,45,f,46) 0
x(5,4,46,f,47) 0
x(5,4,47,f,48) 0
x(5,4,48,f,49) 0
x(5,4,49,f,50) 0
x(5,4,50,f,51) 0
x(5,4,51,f,52) 0
x(5,4,52,f,53) 1
x(5,4,53,f,54) 0
x(5,4,54,f,55) 0
x(5,4,55,f,56) 0
x(5,4,56,f,57) 0
x(5,4,57,f,58) 0
x(5,4,58,f,59) 0
x(6,3,29,f,30) 0
x(6,3,30,f,31) 0
x(6,3,31,f,32) 0
x(6,3,32,f,33) 0
x(6,3,33,f,34) 0
x(6,3,34,f,35) 0
x(6,3,35,f,36) 0
x(6,3,36,f,37) 0
x(6,3,37,f,38) 0
x(6,3,38,f,39) 0
x(6,3,39,f,40) 0
x(6,3,40,f,41) 0
x(6,3,41,f,42) 0
x(6,3,42,f,43) 1
x(6,3,43,f,44) 0
x(6,3,44,f,45) 0
x(6,3,45,f,46) 0
x(6,3,46,f,47) 0
x(6,3,47,f,48) 0
x(6,3,48,f,49) 0
x(6,3,49,f,50) 0
x(6,3,50,f,51) 0
x(6,3,51,f,52) 0
x(6,3,52,f,53) 0
x(6,3,53,f,54) 0
x(6,3,54,f,55) 0
x(6,3,55,f,56) 0
x(6,3,56,f,57) 0
x(6,3,57,f,58) 0
x(6,3,58,f,59) 0
x(1,3,0,1,1) 0
x(1,3,0,3,1) 1
x(1,1,1,2,4) 0
x(1,1,1,1,2) 0
x(1,3,1,1,2) 0
x(1,3,1,3,2) 1
x(1,1,2,2,5) 0
x(1,1,2,1,3) 0
x(1,3,2,1,3) 0
x(1,3,2,3,3) 1
x(1,1,3,2,6) 0
x(1,1,3,1,4) 0
x(1,3,3,1,4) 0
x(1,3,3,3,4) 1
x(1,1,4,2,7) 0
x(1,1,4,1,5) 0
x(1,2,4,4,10) 0
x(1,2,4,2,5) 0
x(1,3,4,1,5) 0
x(1,3,4,3,5) 1
x(1,1,5,2,8) 0
x(1,1,5,1,6) 0
x(1,2,5,4,11) 0
x(1,2,5,2,6) 0
x(1,3,5,1,6) 0
x(1,3,5,3,6) 1
x(1,1,6,2,9) 0
x(1,1,6,1,7) 0
x(1,2,6,4,12) 0
x(1,2,6,2,7) 0
x(1,3,6,1,7) 1
x(1,3,6,3,7) 0
x(1,1,7,2,10) 0
x(1,1,7,1,8) 1
x(1,2,7,4,13) 0
x(1,2,7,2,8) 0
x(1,3,7,1,8) 0
x(1,3,7,3,8) 0
x(1,1,8,2,11) 0
x(1,1,8,1,9) 1
x(1,2,8,4,14) 0
x(1,2,8,2,9) 0
x(1,3,8,1,9) 0
x(1,3,8,3,9) 0
x(1,1,9,2,12) 0
x(1,1,9,1,10) 1
x(1,2,9,4,15) 0
x(1,2,9,2,10) 0
x(1,3,9,1,10) 0
x(1,3,9,3,10) 0
x(1,1,10,2,13) 1
x(1,1,10,1,11) 0
x(1,2,10,4,16) 0
x(1,2,10,2,11) 0
x(1,3,10,1,11) 0
x(1,3,10,3,11) 0
x(1,4,10,6,17) 0
x(1,4,10,4,11) 0
x(1,1,11,2,14) 0
x(1,1,11,1,12) 0
x(1,2,11,4,17) 0
x(1,2,11,2,12) 0
x(1,3,11,1,12) 0
x(1,3,11,3,12) 0
x(1,4,11,6,18) 0
x(1,4,11,4,12) 0
x(1,1,12,2,15) 0
x(1,1,12,1,13) 0
x(1,2,12,4,18) 0
x(1,2,12,2,13) 0
x(1,3,12,1,13) 0
x(1,3,12,3,13) 0
x(1,4,12,6,19) 0
x(1,4,12,4,13) 0
x(1,1,13,2,16) 0
x(1,1,13,1,14) 0
x(1,2,13,4,19) 0
x(1,2,13,2,14) 1
x(1,3,13,1,14) 0
x(1,3,13,3,14) 0
x(1,4,13,6,20) 0
x(1,4,13,4,14) 0
x(1,1,14,2,17) 0
x(1,1,14,1,15) 0
x(1,2,14,4,20) 0
x(1,2,14,2,15) 1
x(1,3,14,1,15) 0
x(1,3,14,3,15) 0
x(1,4,14,6,21) 0
x(1,4,14,4,15) 0
x(1,1,15,2,18) 0
x(1,1,15,1,16) 0
x(1,2,15,4,21) 0
x(1,2,15,2,16) 1
x(1,3,15,1,16) 0
x(1,3,15,3,16) 0
x(1,4,15,6,22) 0
x(1,4,15,4,16) 0
x(1,1,16,2,19) 0
x(1,1,16,1,17) 0
x(1,2,16,4,22) 1
x(1,2,16,2,17) 0
x(1,3,16,1,17) 0
x(1,3,16,3,17) 0
x(1,4,16,6,23) 0
x(1,4,16,4,17) 0
x(1,1,17,2,20) 0
x(1,1,17,1,18) 0
x(1,2,17,4,23) 0
x(1,2,17,2,18) 0
x(1,3,17,1,18) 0
x(1,3,17,3,18) 0
x(1,4,17,6,24) 0
x(1,4,17,4,18) 0
x(1,6,17,5,20) 0
x(1,6,17,6,18) 0
x(1,1,18,2,21) 0
x(1,1,18,1,19) 0
x(1,2,18,4,24) 0
x(1,2,18,2,19) 0
x(1,3,18,1,19) 0
x(1,3,18,3,19) 0
x(1,4,18,6,25) 0
x(1,4,18,4,19) 0
x(1,6,18,5,21) 0
x(1,6,18,6,19) 0
x(1,1,19,2,22) 0
x(1,1,19,1,20) 0
x(1,2,19,4,25) 0
x(1,2,19,2,20) 0
x(1,3,19,1,20) 0
x(1,3,19,3,20) 0
x(1,4,19,6,26) 0
x(1,4,19,4,20) 0
x(1,6,19,5,22) 0
x(1,6,19,6,20) 0
x(1,1,20,2,23) 0
x(1,1,20,1,21) 0
x(1,2,20,4,26) 0
x(1,2,20,2,21) 0
x(1,3,20,1,21) 0
x(1,3,20,3,21) 0
x(1,4,20,6,27) 0
x(1,4,20,4,21) 0
x(1,5,20,5,21) 0
x(1,6,20,5,23) 0
x(1,6,20,6,21) 0
x(1,1,21,2,24) 0
x(1,1,21,1,22) 0
x(1,2,21,4,27) 0
x(1,2,21,2,22) 0
x(1,3,21,1,22) 0
x(1,3,21,3,22) 0
x(1,4,21,6,28) 0
x(1,4,21,4,22) 0
x(1,5,21,5,22) 0
x(1,6,21,5,24) 0
x(1,6,21,6,22) 0
x(1,1,22,2,25) 0
x(1,1,22,1,23) 0
x(1,2,22,4,28) 0
x(1,2,22,2,23) 0
x(1,3,22,1,23) 0
x(1,3,22,3,23) 0
x(1,4,22,6,29) 0
x(1,4,22,4,23) 1
x(1,5,22,5,23) 0
x(1,6,22,5,25) 0
x(1,6,22,6,23) 0
x(1,1,23,2,26) 0
x(1,1,23,1,24) 0
x(1,2,23,4,29) 0
x(1,2,23,2,24) 0
x(1,3,23,1,24) 0
x(1,3,23,3,24) 0
x(1,4,23,6,30) 0
x(1,4,23,4,24) 1
x(1,5,23,5,24) 0
x(1,6,23,5,26) 0
x(1,6,23,6,24) 0
x(1,1,24,2,27) 0
x(1,1,24,1,25) 0
x(1,2,24,4,30) 0
x(1,2,24,2,25) 0
x(1,3,24,1,25) 0
x(1,3,24,3,25) 0
x(1,4,24,6,31) 0
x(1,4,24,4,25) 1
x(1,5,24,5,25) 0
x(1,6,24,5,27) 0
x(1,6,24,6,25) 0
x(1,1,25,2,28) 0
x(1,1,25,1,26) 0
x(1,2,25,4,31) 0
x(1,2,25,2,26) 0
x(1,3,25,1,26) 0
x(1,3,25,3,26) 0
x(1,4,25,6,32) 0
x(1,4,25,4,26) 1
x(1,5,25,5,26) 0
x(1,6,25,5,28) 0
x(1,6,25,6,26) 0
x(1,1,26,2,29) 0
x(1,1,26,1,27) 0
x(1,2,26,4,32) 0
x(1,2,26,2,27) 0
x(1,3,26,1,27) 0
x(1,3,26,3,27) 0
x(1,4,26,6,33) 0
x(1,4,26,4,27) 1
x(1,5,26,5,27) 0
x(1,6,26,5,29) 0
x(1,6,26,6,27) 0
x(1,1,27,2,30) 0
x(1,1,27,1,28) 0
x(1,2,27,4,33) 0
x(1,2,27,2,28) 0
x(1,3,27,1,28) 0
x(1,3,27,3,28) 0
x(1,4,27,6,34) 0
x(1,4,27,4,28) 1
x(1,5,27,5,28) 0
x(1,6,27,5,30) 0
x(1,6,27,6,28) 0
x(1,1,28,2,31) 0
x(1,1,28,1,29) 0
x(1,2,28,4,34) 0
x(1,2,28,2,29) 0
x(1,3,28,1,29) 0
x(1,3,28,3,29) 0
x(1,4,28,6,35) 0
x(1,4,28,4,29) 1
x(1,5,28,5,29) 0
x(1,6,28,5,31) 0
x(1,6,28,6,29) 0
x(1,1,29,2,32) 0
x(1,1,29,1,30) 0
x(1,2,29,4,35) 0
x(1,2,29,2,30) 0
x(1,3,29,1,30) 0
x(1,3,29,3,30) 0
x(1,4,29,6,36) 0
x(1,4,29,4,30) 1
x(1,5,29,5,30) 0
x(1,6,29,5,32) 0
x(1,6,29,6,30) 0
x(1,1,30,2,33) 0
x(1,1,30,1,31) 0
x(1,2,30,4,36) 0
x(1,2,30,2,31) 0
x(1,3,30,1,31) 0
x(1,3,30,3,31) 0
x(1,4,30,6,37) 1
x(1,4,30,4,31) 0
x(1,5,30,5,31) 0
x(1,6,30,5,33) 0
x(1,6,30,6,31) 0
x(1,1,31,2,34) 0
x(1,1,31,1,32) 0
x(1,2,31,4,37) 0
x(1,2,31,2,32) 0
x(1,3,31,1,32) 0
x(1,3,31,3,32) 0
x(1,4,31,6,38) 0
x(1,4,31,4,32) 0
x(1,5,31,5,32) 0
x(1,6,31,5,34) 0
x(1,6,31,6,32) 0
x(1,1,32,2,35) 0
x(1,1,32,1,33) 0
x(1,2,32,4,38) 0
x(1,2,32,2,33) 0
x(1,3,32,1,33) 0
x(1,3,32,3,33) 0
x(1,4,32,6,39) 0
x(1,4,32,4,33) 0
x(1,5,32,5,33) 0
x(1,6,32,5,35) 0
x(1,6,32,6,33) 0
x(1,1,33,2,36) 0
x(1,1,33,1,34) 0
x(1,2,33,4,39) 0
x(1,2,33,2,34) 0
x(1,3,33,1,34) 0
x(1,4,33,6,40) 0
x(1,4,33,4,34) 0
x(1,5,33,5,34) 0
x(1,6,33,5,36) 0
x(1,6,33,6,34) 0
x(1,1,34,2,37) 0
x(1,2,34,4,40) 0
x(1,2,34,2,35) 0
x(1,4,34,6,41) 0
x(1,4,34,4,35) 0
x(1,5,34,5,35) 0
x(1,6,34,5,37) 0
x(1,6,34,6,35) 0
x(1,2,35,4,41) 0
x(1,2,35,2,36) 0
x(1,4,35,6,42) 0
x(1,4,35,4,36) 0
x(1,5,35,5,36) 0
x(1,6,35,5,38) 0
x(1,6,35,6,36) 0
x(1,2,36,4,42) 0
x(1,2,36,2,37) 0
x(1,4,36,6,43) 0
x(1,4,36,4,37) 0
x(1,5,36,5,37) 0
x(1,6,36,5,39) 0
x(1,6,36,6,37) 0
x(1,2,37,4,43) 0
x(1,4,37,6,44) 0
x(1,4,37,4,38) 0
x(1,5,37,5,38) 0
x(1,6,37,5,40) 0
x(1,6,37,6,38) 1
x(1,4,38,6,45) 0
x(1,4,38,4,39) 0
x(1,5,38,5,39) 0
x(1,6,38,5,41) 0
x(1,6,38,6,39) 1
x(1,4,39,6,46) 0
x(1,4,39,4,40) 0
x(1,5,39,5,40) 0
x(1,6,39,5,42) 1
x(1,6,39,6,40) 0
x(1,4,40,6,47) 0
x(1,4,40,4,41) 0
x(1,5,40,5,41) 0
x(1,6,40,5,43) 0
x(1,6,40,6,41) 0
x(1,4,41,6,48) 0
x(1,4,41,4,42) 0
x(1,5,41,5,42) 0
x(1,6,41,5,44) 0
x(1,6,41,6,42) 0
x(1,4,42,6,49) 0
x(1,4,42,4,43) 0
x(1,5,42,5,43) 1
x(1,6,42,5,45) 0
x(1,6,42,6,43) 0
x(1,4,43,6,50) 0
x(1,5,43,5,44) 1
x(1,6,43,5,46) 0
x(1,6,43,6,44) 0
x(1,5,44,5,45) 1
x(1,6,44,5,47) 0
x(1,6,44,6,45) 0
x(1,5,45,5,46) 1
x(1,6,45,5,48) 0
x(1,6,45,6,46) 0
x(1,5,46,5,47) 1
x(1,6,46,5,49) 0
x(1,6,46,6,47) 0
x(1,5,47,5,48) 1
x(1,6,47,5,50) 0
x(1,6,47,6,48) 0
x(1,5,48,5,49) 1
x(1,6,48,5,51) 0
x(1,6,48,6,49) 0
x(1,5,49,5,50) 0
x(1,6,49,5,52) 0
x(1,6,49,6,50) 0
x(1,5,50,5,51) 0
x(1,6,50,5,53) 0
x(1,5,51,5,52) 0
x(1,5,52,5,53) 0
x(1,5,53,5,54) 0
x(2,2,0,3,8) 1
x(2,2,0,2,1) 0
x(2,2,1,3,9) 0
x(2,2,1,2,2) 0
x(2,2,2,3,10) 0
x(2,2,2,2,3) 0
x(2,2,3,3,11) 0
x(2,2,3,2,4) 0
x(2,2,4,3,12) 0
x(2,2,4,2,5) 0
x(2,2,5,3,13) 0
x(2,2,5,2,6) 0
x(2,2,6,3,14) 0
x(2,2,6,2,7) 0
x(2,2,7,3,15) 0
x(2,2,7,2,8) 0
x(2,2,8,3,16) 0
x(2,2,8,2,9) 0
x(2,3,8,5,13) 1
x(2,3,8,3,9) 0
x(2,2,9,3,17) 0
x(2,2,9,2,10) 0
x(2,3,9,5,14) 0
x(2,3,9,3,10) 0
x(2,2,10,3,18) 0
x(2,2,10,2,11) 0
x(2,3,10,5,15) 0
x(2,3,10,3,11) 0
x(2,2,11,3,19) 0
x(2,2,11,2,12) 0
x(2,3,11,5,16) 0
x(2,3,11,3,12) 0
x(2,2,12,3,20) 0
x(2,3,12,5,17) 0
x(2,3,12,3,13) 0
x(2,3,13,5,18) 0
x(2,3,13,3,14) 0
x(2,5,13,6,23) 0
x(2,5,13,5,14) 1
x(2,3,14,5,19) 0
x(2,3,14,3,15) 0
x(2,5,14,6,24) 1
x(2,5,14,5,15) 0
x(2,3,15,5,20) 0
x(2,3,15,3,16) 0
x(2,5,15,6,25) 0
x(2,5,15,5,16) 0
x(2,3,16,5,21) 0
x(2,3,16,3,17) 0
x(2,5,16,6,26) 0
x(2,5,16,5,17) 0
x(2,3,17,5,22) 0
x(2,3,17,3,18) 0
x(2,5,17,6,27) 0
x(2,5,17,5,18) 0
x(2,3,18,5,23) 0
x(2,3,18,3,19) 0
x(2,5,18,6,28) 0
x(2,5,18,5,19) 0
x(2,3,19,5,24) 0
x(2,3,19,3,20) 0
x(2,5,19,6,29) 0
x(2,5,19,5,20) 0
x(2,3,20,5,25) 0
x(2,5,20,6,30) 0
x(2,5,20,5,21) 0
x(2,5,21,6,31) 0
x(2,5,21,5,22) 0
x(2,5,22,6,32) 0
x(2,5,22,5,23) 0
x(2,5,23,6,33) 0
x(2,5,23,5,24) 0
x(2,6,23,1,33) 0
x(2,6,23,6,24) 0
x(2,5,24,6,34) 0
x(2,5,24,5,25) 0
x(2,6,24,1,34) 0
x(2,6,24,6,25) 1
x(2,5,25,6,35) 0
x(2,6,25,1,35) 0
x(2,6,25,6,26) 1
x(2,6,26,1,36) 0
x(2,6,26,6,27) 1
x(2,6,27,1,37) 0
x(2,6,27,6,28) 1
x(2,6,28,1,38) 1
x(2,6,28,6,29) 0
x(2,6,29,1,39) 0
x(2,6,29,6,30) 0
x(2,6,30,1,40) 0
x(2,6,30,6,31) 0
x(2,6,31,1,41) 0
x(2,6,31,6,32) 0
x(2,6,32,1,42) 0
x(2,6,32,6,33) 0
x(2,1,33,4,43) 0
x(2,1,33,1,34) 0
x(2,6,33,1,43) 0
x(2,6,33,6,34) 0
x(2,1,34,4,44) 0
x(2,1,34,1,35) 0
x(2,6,34,1,44) 0
x(2,6,34,6,35) 0
x(2,1,35,4,45) 0
x(2,1,35,1,36) 0
x(2,6,35,1,45) 0
x(2,1,36,4,46) 0
x(2,1,36,1,37) 0
x(2,1,37,4,47) 0
x(2,1,37,1,38) 0
x(2,1,38,4,48) 1
x(2,1,38,1,39) 0
x(2,1,39,4,49) 0
x(2,1,39,1,40) 0
x(2,1,40,4,50) 0
x(2,1,40,1,41) 0
x(2,1,41,4,51) 0
x(2,1,41,1,42) 0
x(2,1,42,4,52) 0
x(2,1,42,1,43) 0
x(2,1,43,4,53) 0
x(2,1,43,1,44) 0
x(2,4,43,4,44) 0
x(2,1,44,4,54) 0
x(2,1,44,1,45) 0
x(2,4,44,4,45) 0
x(2,1,45,4,55) 0
x(2,4,45,4,46) 0
x(2,4,46,4,47) 0
x(2,4,47,4,48) 0
x(2,4,48,4,49) 0
x(2,4,49,4,50) 0
x(2,4,50,4,51) 0
x(2,4,51,4,52) 0
x(2,4,52,4,53) 0
x(2,4,53,4,54) 0
x(2,4,54,4,55) 0
x(2,4,55,4,56) 0
x(3,3,0,4,5) 1
x(3,3,0,3,1) 0
x(3,3,1,4,6) 0
x(3,3,1,3,2) 0
x(3,3,2,4,7) 0
x(3,3,2,3,3) 0
x(3,3,3,4,8) 0
x(3,3,3,3,4) 0
x(3,3,4,4,9) 0
x(3,3,4,3,5) 0
x(3,3,5,4,10) 0
x(3,3,5,3,6) 0
x(3,4,5,6,9) 1
x(3,4,5,4,6) 0
x(3,3,6,4,11) 0
x(3,3,6,3,7) 0
x(3,4,6,6,10) 0
x(3,4,6,4,7) 0
x(3,3,7,4,12) 0
x(3,3,7,3,8) 0
x(3,4,7,6,11) 0
x(3,4,7,4,8) 0
x(3,3,8,4,13) 0
x(3,3,8,3,9) 0
x(3,4,8,6,12) 0
x(3,4,8,4,9) 0
x(3,3,9,4,14) 0
x(3,3,9,3,10) 0
x(3,4,9,6,13) 0
x(3,4,9,4,10) 0
x(3,6,9,1,17) 1
x(3,6,9,6,10) 0
x(3,3,10,4,15) 0
x(3,3,10,3,11) 0
x(3,4,10,6,14) 0
x(3,4,10,4,11) 0
x(3,6,10,1,18) 0
x(3,6,10,6,11) 0
x(3,3,11,4,16) 0
x(3,3,11,3,12) 0
x(3,4,11,6,15) 0
x(3,4,11,4,12) 0
x(3,6,11,1,19) 0
x(3,6,11,6,12) 0
x(3,3,12,4,17) 0
x(3,3,12,3,13) 0
x(3,4,12,6,16) 0
x(3,4,12,4,13) 0
x(3,6,12,1,20) 0
x(3,6,12,6,13) 0
x(3,3,13,4,18) 0
x(3,3,13,3,14) 0
x(3,4,13,6,17) 0
x(3,4,13,4,14) 0
x(3,6,13,1,21) 0
x(3,6,13,6,14) 0
x(3,3,14,4,19) 0
x(3,3,14,3,15) 0
x(3,4,14,6,18) 0
x(3,4,14,4,15) 0
x(3,6,14,1,22) 0
x(3,6,14,6,15) 0
x(3,3,15,4,20) 0
x(3,3,15,3,16) 0
x(3,4,15,6,19) 0
x(3,4,15,4,16) 0
x(3,6,15,1,23) 0
x(3,6,15,6,16) 0
x(3,3,16,4,21) 0
x(3,3,16,3,17) 0
x(3,4,16,6,20) 0
x(3,4,16,4,17) 0
x(3,6,16,1,24) 0
x(3,6,16,6,17) 0
x(3,1,17,2,26) 0
x(3,1,17,1,18) 1
x(3,3,17,4,22) 0
x(3,3,17,3,18) 0
x(3,4,17,6,21) 0
x(3,4,17,4,18) 0
x(3,6,17,1,25) 0
x(3,6,17,6,18) 0
x(3,1,18,2,27) 1
x(3,1,18,1,19) 0
x(3,3,18,4,23) 0
x(3,3,18,3,19) 0
x(3,4,18,6,22) 0
x(3,4,18,4,19) 0
x(3,6,18,1,26) 0
x(3,6,18,6,19) 0
x(3,1,19,2,28) 0
x(3,1,19,1,20) 0
x(3,3,19,4,24) 0
x(3,3,19,3,20) 0
x(3,4,19,6,23) 0
x(3,4,19,4,20) 0
x(3,6,19,1,27) 0
x(3,6,19,6,20) 0
x(3,1,20,2,29) 0
x(3,1,20,1,21) 0
x(3,3,20,4,25) 0
x(3,3,20,3,21) 0
x(3,4,20,6,24) 0
x(3,4,20,4,21) 0
x(3,6,20,1,28) 0
x(3,6,20,6,21) 0
x(3,1,21,2,30) 0
x(3,1,21,1,22) 0
x(3,3,21,4,26) 0
x(3,3,21,3,22) 0
x(3,4,21,6,25) 0
x(3,4,21,4,22) 0
x(3,6,21,1,29) 0
x(3,6,21,6,22) 0
x(3,1,22,2,31) 0
x(3,1,22,1,23) 0
x(3,3,22,4,27) 0
x(3,3,22,3,23) 0
x(3,4,22,6,26) 0
x(3,4,22,4,23) 0
x(3,6,22,1,30) 0
x(3,6,22,6,23) 0
x(3,1,23,2,32) 0
x(3,1,23,1,24) 0
x(3,3,23,4,28) 0
x(3,3,23,3,24) 0
x(3,4,23,6,27) 0
x(3,4,23,4,24) 0
x(3,6,23,1,31) 0
x(3,6,23,6,24) 0
x(3,1,24,2,33) 0
x(3,1,24,1,25) 0
x(3,3,24,4,29) 0
x(3,3,24,3,25) 0
x(3,4,24,6,28) 0
x(3,4,24,4,25) 0
x(3,6,24,1,32) 0
x(3,6,24,6,25) 0
x(3,1,25,2,34) 0
x(3,1,25,1,26) 0
x(3,3,25,4,30) 0
x(3,4,25,6,29) 0
x(3,4,25,4,26) 0
x(3,6,25,1,33) 0
x(3,6,25,6,26) 0
x(3,1,26,2,35) 0
x(3,1,26,1,27) 0
x(3,2,26,5,27) 0
x(3,2,26,2,27) 0
x(3,4,26,6,30) 0
x(3,4,26,4,27) 0
x(3,6,26,1,34) 0
x(3,6,26,6,27) 0
x(3,1,27,2,36) 0
x(3,1,27,1,28) 0
x(3,2,27,5,28) 0
x(3,2,27,2,28) 1
x(3,4,27,6,31) 0
x(3,4,27,4,28) 0
x(3,5,27,5,28) 0
x(3,6,27,1,35) 0
x(3,6,27,6,28) 0
x(3,1,28,2,37) 0
x(3,1,28,1,29) 0
x(3,2,28,5,29) 0
x(3,2,28,2,29) 1
x(3,4,28,6,32) 0
x(3,4,28,4,29) 0
x(3,5,28,5,29) 0
x(3,6,28,1,36) 0
x(3,6,28,6,29) 0
x(3,1,29,2,38) 0
x(3,1,29,1,30) 0
x(3,2,29,5,30) 0
x(3,2,29,2,30) 1
x(3,4,29,6,33) 0
x(3,4,29,4,30) 0
x(3,5,29,5,30) 0
x(3,6,29,1,37) 0
x(3,6,29,6,30) 0
x(3,1,30,2,39) 0
x(3,1,30,1,31) 0
x(3,2,30,5,31) 0
x(3,2,30,2,31) 1
x(3,4,30,6,34) 0
x(3,5,30,5,31) 0
x(3,6,30,1,38) 0
x(3,6,30,6,31) 0
x(3,1,31,2,40) 0
x(3,1,31,1,32) 0
x(3,2,31,5,32) 0
x(3,2,31,2,32) 1
x(3,5,31,5,32) 0
x(3,6,31,1,39) 0
x(3,6,31,6,32) 0
x(3,1,32,2,41) 0
x(3,1,32,1,33) 0
x(3,2,32,5,33) 0
x(3,2,32,2,33) 1
x(3,5,32,5,33) 0
x(3,6,32,1,40) 0
x(3,6,32,6,33) 0
x(3,1,33,2,42) 0
x(3,1,33,1,34) 0
x(3,2,33,5,34) 0
x(3,2,33,2,34) 1
x(3,5,33,5,34) 0
x(3,6,33,1,41) 0
x(3,6,33,6,34) 0
x(3,1,34,2,43) 0
x(3,1,34,1,35) 0
x(3,2,34,5,35) 0
x(3,2,34,2,35) 1
x(3,5,34,5,35) 0
x(3,6,34,1,42) 0
x(3,1,35,2,44) 0
x(3,1,35,1,36) 0
x(3,2,35,5,36) 0
x(3,2,35,2,36) 1
x(3,5,35,5,36) 0
x(3,1,36,2,45) 0
x(3,1,36,1,37) 0
x(3,2,36,5,37) 0
x(3,2,36,2,37) 1
x(3,5,36,5,37) 0
x(3,1,37,2,46) 0
x(3,1,37,1,38) 0
x(3,2,37,5,38) 0
x(3,2,37,2,38) 1
x(3,5,37,5,38) 0
x(3,1,38,2,47) 0
x(3,1,38,1,39) 0
x(3,2,38,5,39) 1
x(3,2,38,2,39) 0
x(3,5,38,5,39) 0
x(3,1,39,2,48) 0
x(3,1,39,1,40) 0
x(3,2,39,5,40) 0
x(3,2,39,2,40) 0
x(3,5,39,5,40) 1
x(3,1,40,2,49) 0
x(3,1,40,1,41) 0
x(3,2,40,5,41) 0
x(3,2,40,2,41) 0
x(3,5,40,5,41) 1
x(3,1,41,2,50) 0
x(3,1,41,1,42) 0
x(3,2,41,5,42) 0
x(3,2,41,2,42) 0
x(3,5,41,5,42) 1
x(3,1,42,2,51) 0
x(3,2,42,5,43) 0
x(3,2,42,2,43) 0
x(3,5,42,5,43) 0
x(3,2,43,5,44) 0
x(3,2,43,2,44) 0
x(3,5,43,5,44) 0
x(3,2,44,5,45) 0
x(3,2,44,2,45) 0
x(3,5,44,5,45) 0
x(3,2,45,5,46) 0
x(3,2,45,2,46) 0
x(3,5,45,5,46) 0
x(3,2,46,5,47) 0
x(3,2,46,2,47) 0
x(3,5,46,5,47) 0
x(3,2,47,5,48) 0
x(3,2,47,2,48) 0
x(3,5,47,5,48) 0
x(3,2,48,5,49) 0
x(3,2,48,2,49) 0
x(3,5,48,5,49) 0
x(3,2,49,5,50) 0
x(3,2,49,2,50) 0
x(3,5,49,5,50) 0
x(3,2,50,5,51) 0
x(3,2,50,2,51) 0
x(3,5,50,5,51) 0
x(3,2,51,5,52) 0
x(3,5,51,5,52) 0
x(3,5,52,5,53) 0
x(4,2,0,1,5) 0
x(4,2,0,2,1) 1
x(4,2,1,1,6) 0
x(4,2,1,2,2) 1
x(4,2,2,1,7) 0
x(4,2,2,2,3) 1
x(4,2,3,1,8) 0
x(4,2,3,2,4) 1
x(4,2,4,1,9) 0
x(4,2,4,2,5) 1
x(4,1,5,3,10) 0
x(4,1,5,1,6) 0
x(4,2,5,1,10) 0
x(4,2,5,2,6) 1
x(4,1,6,3,11) 0
x(4,1,6,1,7) 0
x(4,2,6,1,11) 0
x(4,2,6,2,7) 1
x(4,1,7,3,12) 0
x(4,1,7,1,8) 0
x(4,2,7,1,12) 0
x(4,2,7,2,8) 1
x(4,1,8,3,13) 0
x(4,1,8,1,9) 0
x(4,2,8,1,13) 1
x(4,2,8,2,9) 0
x(4,1,9,3,14) 0
x(4,1,9,1,10) 0
x(4,2,9,1,14) 0
x(4,2,9,2,10) 0
x(4,1,10,3,15) 0
x(4,1,10,1,11) 0
x(4,2,10,1,15) 0
x(4,2,10,2,11) 0
x(4,3,10,4,15) 0
x(4,3,10,3,11) 0
x(4,1,11,3,16) 0
x(4,1,11,1,12) 0
x(4,2,11,1,16) 0
x(4,2,11,2,12) 0
x(4,3,11,4,16) 0
x(4,3,11,3,12) 0
x(4,1,12,3,17) 0
x(4,1,12,1,13) 0
x(4,2,12,1,17) 0
x(4,2,12,2,13) 0
x(4,3,12,4,17) 0
x(4,3,12,3,13) 0
x(4,1,13,3,18) 1
x(4,1,13,1,14) 0
x(4,2,13,1,18) 0
x(4,2,13,2,14) 0
x(4,3,13,4,18) 0
x(4,3,13,3,14) 0
x(4,1,14,3,19) 0
x(4,1,14,1,15) 0
x(4,2,14,1,19) 0
x(4,2,14,2,15) 0
x(4,3,14,4,19) 0
x(4,3,14,3,15) 0
x(4,1,15,3,20) 0
x(4,1,15,1,16) 0
x(4,2,15,1,20) 0
x(4,2,15,2,16) 0
x(4,3,15,4,20) 0
x(4,3,15,3,16) 0
x(4,4,15,5,18) 0
x(4,4,15,4,16) 0
x(4,1,16,3,21) 0
x(4,1,16,1,17) 0
x(4,2,16,1,21) 0
x(4,2,16,2,17) 0
x(4,3,16,4,21) 0
x(4,3,16,3,17) 0
x(4,4,16,5,19) 0
x(4,4,16,4,17) 0
x(4,1,17,3,22) 0
x(4,1,17,1,18) 0
x(4,2,17,1,22) 0
x(4,2,17,2,18) 0
x(4,3,17,4,22) 0
x(4,3,17,3,18) 0
x(4,4,17,5,20) 0
x(4,4,17,4,18) 0
x(4,1,18,3,23) 0
x(4,1,18,1,19) 0
x(4,2,18,1,23) 0
x(4,2,18,2,19) 0
x(4,3,18,4,23) 0
x(4,3,18,3,19) 1
x(4,4,18,5,21) 0
x(4,4,18,4,19) 0
x(4,5,18,6,26) 0
x(4,5,18,5,19) 0
x(4,1,19,3,24) 0
x(4,1,19,1,20) 0
x(4,2,19,1,24) 0
x(4,2,19,2,20) 0
x(4,3,19,4,24) 0
x(4,3,19,3,20) 1
x(4,4,19,5,22) 0
x(4,4,19,4,20) 0
x(4,5,19,6,27) 0
x(4,5,19,5,20) 0
x(4,1,20,3,25) 0
x(4,1,20,1,21) 0
x(4,2,20,1,25) 0
x(4,2,20,2,21) 0
x(4,3,20,4,25) 0
x(4,3,20,3,21) 1
x(4,4,20,5,23) 0
x(4,4,20,4,21) 0
x(4,5,20,6,28) 0
x(4,5,20,5,21) 0
x(4,1,21,3,26) 0
x(4,1,21,1,22) 0
x(4,2,21,1,26) 0
x(4,2,21,2,22) 0
x(4,3,21,4,26) 0
x(4,3,21,3,22) 1
x(4,4,21,5,24) 0
x(4,4,21,4,22) 0
x(4,5,21,6,29) 0
x(4,5,21,5,22) 0
x(4,1,22,3,27) 0
x(4,1,22,1,23) 0
x(4,2,22,1,27) 0
x(4,2,22,2,23) 0
x(4,3,22,4,27) 1
x(4,3,22,3,23) 0
x(4,4,22,5,25) 0
x(4,4,22,4,23) 0
x(4,5,22,6,30) 0
x(4,5,22,5,23) 0
x(4,1,23,3,28) 0
x(4,1,23,1,24) 0
x(4,2,23,1,28) 0
x(4,2,23,2,24) 0
x(4,3,23,4,28) 0
x(4,3,23,3,24) 0
x(4,4,23,5,26) 0
x(4,4,23,4,24) 0
x(4,5,23,6,31) 0
x(4,5,23,5,24) 0
x(4,1,24,3,29) 0
x(4,1,24,1,25) 0
x(4,2,24,1,29) 0
x(4,3,24,4,29) 0
x(4,3,24,3,25) 0
x(4,4,24,5,27) 0
x(4,4,24,4,25) 0
x(4,5,24,6,32) 0
x(4,5,24,5,25) 0
x(4,1,25,3,30) 0
x(4,1,25,1,26) 0
x(4,3,25,4,30) 0
x(4,3,25,3,26) 0
x(4,4,25,5,28) 0
x(4,4,25,4,26) 0
x(4,5,25,6,33) 0
x(4,5,25,5,26) 0
x(4,1,26,3,31) 0
x(4,1,26,1,27) 0
x(4,3,26,4,31) 0
x(4,3,26,3,27) 0
x(4,4,26,5,29) 0
x(4,4,26,4,27) 0
x(4,5,26,6,34) 0
x(4,5,26,5,27) 0
x(4,6,26,6,27) 0
x(4,1,27,3,32) 0
x(4,1,27,1,28) 0
x(4,3,27,4,32) 0
x(4,3,27,3,28) 0
x(4,4,27,5,30) 1
x(4,4,27,4,28) 0
x(4,5,27,6,35) 0
x(4,5,27,5,28) 0
x(4,6,27,6,28) 0
x(4,1,28,3,33) 0
x(4,1,28,1,29) 0
x(4,3,28,4,33) 0
x(4,3,28,3,29) 0
x(4,4,28,5,31) 0
x(4,4,28,4,29) 0
x(4,5,28,6,36) 0
x(4,5,28,5,29) 0
x(4,6,28,6,29) 0
x(4,1,29,3,34) 0
x(4,3,29,4,34) 0
x(4,3,29,3,30) 0
x(4,4,29,5,32) 0
x(4,4,29,4,30) 0
x(4,5,29,6,37) 0
x(4,5,29,5,30) 0
x(4,6,29,6,30) 0
x(4,3,30,4,35) 0
x(4,3,30,3,31) 0
x(4,4,30,5,33) 0
x(4,4,30,4,31) 0
x(4,5,30,6,38) 1
x(4,5,30,5,31) 0
x(4,6,30,6,31) 0
x(4,3,31,4,36) 0
x(4,3,31,3,32) 0
x(4,4,31,5,34) 0
x(4,4,31,4,32) 0
x(4,5,31,6,39) 0
x(4,5,31,5,32) 0
x(4,6,31,6,32) 0
x(4,3,32,4,37) 0
x(4,3,32,3,33) 0
x(4,4,32,5,35) 0
x(4,4,32,4,33) 0
x(4,5,32,6,40) 0
x(4,5,32,5,33) 0
x(4,6,32,6,33) 0
x(4,3,33,4,38) 0
x(4,3,33,3,34) 0
x(4,4,33,5,36) 0
x(4,4,33,4,34) 0
x(4,5,33,6,41) 0
x(4,5,33,5,34) 0
x(4,6,33,6,34) 0
x(4,3,34,4,39) 0
x(4,4,34,5,37) 0
x(4,4,34,4,35) 0
x(4,5,34,6,42) 0
x(4,5,34,5,35) 0
x(4,6,34,6,35) 0
x(4,4,35,5,38) 0
x(4,4,35,4,36) 0
x(4,5,35,6,43) 0
x(4,5,35,5,36) 0
x(4,6,35,6,36) 0
x(4,4,36,5,39) 0
x(4,4,36,4,37) 0
x(4,5,36,6,44) 0
x(4,5,36,5,37) 0
x(4,6,36,6,37) 0
x(4,4,37,5,40) 0
x(4,4,37,4,38) 0
x(4,5,37,6,45) 0
x(4,5,37,5,38) 0
x(4,6,37,6,38) 0
x(4,4,38,5,41) 0
x(4,4,38,4,39) 0
x(4,5,38,6,46) 0
x(4,5,38,5,39) 0
x(4,6,38,6,39) 1
x(4,4,39,5,42) 0
x(4,5,39,6,47) 0
x(4,5,39,5,40) 0
x(4,6,39,6,40) 1
x(4,5,40,6,48) 0
x(4,5,40,5,41) 0
x(4,6,40,6,41) 1
x(4,5,41,6,49) 0
x(4,5,41,5,42) 0
x(4,6,41,6,42) 1
x(4,5,42,6,50) 0
x(4,6,42,6,43) 1
x(4,6,43,6,44) 1
x(4,6,44,6,45) 1
x(4,6,45,6,46) 1
x(4,6,46,6,47) 0
x(4,6,47,6,48) 0
x(4,6,48,6,49) 0
x(4,6,49,6,50) 0
x(4,6,50,6,51) 0
x(5,3,0,2,9) 0
x(5,3,0,3,1) 1
x(5,3,1,2,10) 0
x(5,3,1,3,2) 1
x(5,3,2,2,11) 0
x(5,3,2,3,3) 1
x(5,3,3,2,12) 0
x(5,3,3,3,4) 1
x(5,3,4,2,13) 0
x(5,3,4,3,5) 1
x(5,3,5,2,14) 0
x(5,3,5,3,6) 1
x(5,3,6,2,15) 0
x(5,3,6,3,7) 1
x(5,3,7,2,16) 0
x(5,3,7,3,8) 1
x(5,3,8,2,17) 0
x(5,3,8,3,9) 1
x(5,2,9,5,12) 0
x(5,2,9,2,10) 0
x(5,3,9,2,18) 0
x(5,3,9,3,10) 1
x(5,2,10,5,13) 0
x(5,2,10,2,11) 0
x(5,3,10,2,19) 0
x(5,3,10,3,11) 1
x(5,2,11,5,14) 0
x(5,2,11,2,12) 0
x(5,3,11,2,20) 0
x(5,3,11,3,12) 1
x(5,2,12,5,15) 0
x(5,2,12,2,13) 0
x(5,3,12,2,21) 0
x(5,3,12,3,13) 1
x(5,5,12,6,17) 0
x(5,5,12,5,13) 0
x(5,2,13,5,16) 0
x(5,2,13,2,14) 0
x(5,3,13,2,22) 1
x(5,3,13,3,14) 0
x(5,5,13,6,18) 0
x(5,5,13,5,14) 0
x(5,2,14,5,17) 0
x(5,2,14,2,15) 0
x(5,3,14,2,23) 0
x(5,3,14,3,15) 0
x(5,5,14,6,19) 0
x(5,5,14,5,15) 0
x(5,2,15,5,18) 0
x(5,2,15,2,16) 0
x(5,3,15,2,24) 0
x(5,3,15,3,16) 0
x(5,5,15,6,20) 0
x(5,5,15,5,16) 0
x(5,2,16,5,19) 0
x(5,2,16,2,17) 0
x(5,3,16,2,25) 0
x(5,3,16,3,17) 0
x(5,5,16,6,21) 0
x(5,5,16,5,17) 0
x(5,2,17,5,20) 0
x(5,2,17,2,18) 0
x(5,3,17,2,26) 0
x(5,3,17,3,18) 0
x(5,5,17,6,22) 0
x(5,5,17,5,18) 0
x(5,6,17,1,21) 0
x(5,6,17,6,18) 0
x(5,2,18,5,21) 0
x(5,2,18,2,19) 0
x(5,3,18,2,27) 0
x(5,3,18,3,19) 0
x(5,5,18,6,23) 0
x(5,5,18,5,19) 0
x(5,6,18,1,22) 0
x(5,6,18,6,19) 0
x(5,2,19,5,22) 0
x(5,2,19,2,20) 0
x(5,3,19,2,28) 0
x(5,3,19,3,20) 0
x(5,5,19,6,24) 0
x(5,5,19,5,20) 0
x(5,6,19,1,23) 0
x(5,6,19,6,20) 0
x(5,2,20,5,23) 0
x(5,2,20,2,21) 0
x(5,3,20,2,29) 0
x(5,3,20,3,21) 0
x(5,5,20,6,25) 0
x(5,5,20,5,21) 0
x(5,6,20,1,24) 0
x(5,6,20,6,21) 0
x(5,1,21,4,24) 0
x(5,1,21,1,22) 0
x(5,2,21,5,24) 0
x(5,2,21,2,22) 0
x(5,3,21,2,30) 0
x(5,3,21,3,22) 0
x(5,5,21,6,26) 0
x(5,5,21,5,22) 0
x(5,6,21,1,25) 0
x(5,6,21,6,22) 0
x(5,1,22,4,25) 0
x(5,1,22,1,23) 0
x(5,2,22,5,25) 1
x(5,2,22,2,23) 0
x(5,3,22,2,31) 0
x(5,3,22,3,23) 0
x(5,5,22,6,27) 0
x(5,5,22,5,23) 0
x(5,6,22,1,26) 0
x(5,6,22,6,23) 0
x(5,1,23,4,26) 0
x(5,1,23,1,24) 0
x(5,2,23,5,26) 0
x(5,2,23,2,24) 0
x(5,3,23,2,32) 0
x(5,3,23,3,24) 0
x(5,5,23,6,28) 0
x(5,5,23,5,24) 0
x(5,6,23,1,27) 0
x(5,6,23,6,24) 0
x(5,1,24,4,27) 0
x(5,1,24,1,25) 0
x(5,2,24,5,27) 0
x(5,2,24,2,25) 0
x(5,3,24,2,33) 0
x(5,3,24,3,25) 0
x(5,4,24,4,25) 0
x(5,5,24,6,29) 0
x(5,5,24,5,25) 0
x(5,6,24,1,28) 0
x(5,6,24,6,25) 0
x(5,1,25,4,28) 0
x(5,1,25,1,26) 0
x(5,2,25,5,28) 0
x(5,2,25,2,26) 0
x(5,3,25,2,34) 0
x(5,3,25,3,26) 0
x(5,4,25,4,26) 0
x(5,5,25,6,30) 1
x(5,5,25,5,26) 0
x(5,6,25,1,29) 0
x(5,6,25,6,26) 0
x(5,1,26,4,29) 0
x(5,1,26,1,27) 0
x(5,2,26,5,29) 0
x(5,2,26,2,27) 0
x(5,3,26,2,35) 0
x(5,3,26,3,27) 0
x(5,4,26,4,27) 0
x(5,5,26,6,31) 0
x(5,5,26,5,27) 0
x(5,6,26,1,30) 0
x(5,6,26,6,27) 0
x(5,1,27,4,30) 0
x(5,1,27,1,28) 0
x(5,2,27,5,30) 0
x(5,2,27,2,28) 0
x(5,3,27,2,36) 0
x(5,3,27,3,28) 0
x(5,4,27,4,28) 0
x(5,5,27,6,32) 0
x(5,5,27,5,28) 0
x(5,6,27,1,31) 0
x(5,6,27,6,28) 0
x(5,1,28,4,31) 0
x(5,1,28,1,29) 0
x(5,2,28,5,31) 0
x(5,2,28,2,29) 0
x(5,3,28,2,37) 0
x(5,3,28,3,29) 0
x(5,4,28,4,29) 0
x(5,5,28,6,33) 0
x(5,5,28,5,29) 0
x(5,6,28,1,32) 0
x(5,6,28,6,29) 0
x(5,1,29,4,32) 0
x(5,1,29,1,30) 0
x(5,2,29,5,32) 0
x(5,2,29,2,30) 0
x(5,3,29,2,38) 0
x(5,3,29,3,30) 0
x(5,4,29,4,30) 0
x(5,5,29,6,34) 0
x(5,5,29,5,30) 0
x(5,6,29,1,33) 0
x(5,6,29,6,30) 0
x(5,1,30,4,33) 0
x(5,1,30,1,31) 0
x(5,2,30,5,33) 0
x(5,2,30,2,31) 0
x(5,3,30,2,39) 0
x(5,3,30,3,31) 0
x(5,4,30,4,31) 0
x(5,5,30,6,35) 0
x(5,5,30,5,31) 0
x(5,6,30,1,34) 0
x(5,6,30,6,31) 1
x(5,1,31,4,34) 0
x(5,1,31,1,32) 0
x(5,2,31,5,34) 0
x(5,2,31,2,32) 0
x(5,3,31,2,40) 0
x(5,3,31,3,32) 0
x(5,4,31,4,32) 0
x(5,5,31,6,36) 0
x(5,5,31,5,32) 0
x(5,6,31,1,35) 0
x(5,6,31,6,32) 1
x(5,1,32,4,35) 0
x(5,1,32,1,33) 0
x(5,2,32,5,35) 0
x(5,2,32,2,33) 0
x(5,3,32,2,41) 0
x(5,3,32,3,33) 0
x(5,4,32,4,33) 0
x(5,5,32,6,37) 0
x(5,5,32,5,33) 0
x(5,6,32,1,36) 0
x(5,6,32,6,33) 1
x(5,1,33,4,36) 0
x(5,1,33,1,34) 0
x(5,2,33,5,36) 0
x(5,2,33,2,34) 0
x(5,3,33,2,42) 0
x(5,3,33,3,34) 0
x(5,4,33,4,34) 0
x(5,5,33,6,38) 0
x(5,5,33,5,34) 0
x(5,6,33,1,37) 0
x(5,6,33,6,34) 1
x(5,1,34,4,37) 0
x(5,1,34,1,35) 0
x(5,2,34,5,37) 0
x(5,2,34,2,35) 0
x(5,3,34,2,43) 0
x(5,4,34,4,35) 0
x(5,5,34,6,39) 0
x(5,5,34,5,35) 0
x(5,6,34,1,38) 0
x(5,6,34,6,35) 1
x(5,1,35,4,38) 0
x(5,1,35,1,36) 0
x(5,2,35,5,38) 0
x(5,2,35,2,36) 0
x(5,4,35,4,36) 0
x(5,5,35,6,40) 0
x(5,5,35,5,36) 0
x(5,6,35,1,39) 0
x(5,6,35,6,36) 1
x(5,1,36,4,39) 0
x(5,1,36,1,37) 0
x(5,2,36,5,39) 0
x(5,2,36,2,37) 0
x(5,4,36,4,37) 0
x(5,5,36,6,41) 0
x(5,5,36,5,37) 0
x(5,6,36,1,40) 0
x(5,6,36,6,37) 1
x(5,1,37,4,40) 0
x(5,1,37,1,38) 0
x(5,2,37,5,40) 0
x(5,2,37,2,38) 0
x(5,4,37,4,38) 0
x(5,5,37,6,42) 0
x(5,5,37,5,38) 0
x(5,6,37,1,41) 0
x(5,6,37,6,38) 1
x(5,1,38,4,41) 0
x(5,1,38,1,39) 0
x(5,2,38,5,41) 0
x(5,2,38,2,39) 0
x(5,4,38,4,39) 0
x(5,5,38,6,43) 0
x(5,5,38,5,39) 0
x(5,6,38,1,42) 0
x(5,6,38,6,39) 1
x(5,1,39,4,42) 0
x(5,1,39,1,40) 0
x(5,2,39,5,42) 0
x(5,2,39,2,40) 0
x(5,4,39,4,40) 0
x(5,5,39,6,44) 0
x(5,5,39,5,40) 0
x(5,6,39,1,43) 0
x(5,6,39,6,40) 1
x(5,1,40,4,43) 0
x(5,1,40,1,41) 0
x(5,2,40,5,43) 0
x(5,2,40,2,41) 0
x(5,4,40,4,41) 0
x(5,5,40,6,45) 0
x(5,5,40,5,41) 0
x(5,6,40,1,44) 0
x(5,6,40,6,41) 1
x(5,1,41,4,44) 0
x(5,1,41,1,42) 0
x(5,2,41,5,44) 0
x(5,2,41,2,42) 0
x(5,4,41,4,42) 0
x(5,5,41,6,46) 0
x(5,5,41,5,42) 0
x(5,6,41,1,45) 0
x(5,6,41,6,42) 1
x(5,1,42,4,45) 0
x(5,1,42,1,43) 0
x(5,2,42,5,45) 0
x(5,2,42,2,43) 0
x(5,4,42,4,43) 0
x(5,5,42,6,47) 0
x(5,5,42,5,43) 0
x(5,6,42,1,46) 1
x(5,6,42,6,43) 0
x(5,1,43,4,46) 0
x(5,1,43,1,44) 0
x(5,2,43,5,46) 0
x(5,4,43,4,44) 0
x(5,5,43,6,48) 0
x(5,5,43,5,44) 0
x(5,6,43,1,47) 0
x(5,6,43,6,44) 0
x(5,1,44,4,47) 0
x(5,1,44,1,45) 0
x(5,4,44,4,45) 0
x(5,5,44,6,49) 0
x(5,5,44,5,45) 0
x(5,6,44,1,48) 0
x(5,6,44,6,45) 0
x(5,1,45,4,48) 0
x(5,1,45,1,46) 0
x(5,4,45,4,46) 0
x(5,5,45,6,50) 0
x(5,5,45,5,46) 0
x(5,6,45,1,49) 0
x(5,6,45,6,46) 0
x(5,1,46,4,49) 0
x(5,1,46,1,47) 1
x(5,4,46,4,47) 0
x(5,5,46,6,51) 0
x(5,6,46,1,50) 0
x(5,6,46,6,47) 0
x(5,1,47,4,50) 0
x(5,1,47,1,48) 1
x(5,4,47,4,48) 0
x(5,6,47,1,51) 0
x(5,6,47,6,48) 0
x(5,1,48,4,51) 0
x(5,1,48,1,49) 1
x(5,4,48,4,49) 0
x(5,6,48,1,52) 0
x(5,6,48,6,49) 0
x(5,1,49,4,52) 1
x(5,1,49,1,50) 0
x(5,4,49,4,50) 0
x(5,6,49,1,53) 0
x(5,6,49,6,50) 0
x(5,1,50,4,53) 0
x(5,1,50,1,51) 0
x(5,4,50,4,51) 0
x(5,6,50,1,54) 0
x(5,6,50,6,51) 0
x(5,1,51,4,54) 0
x(5,1,51,1,52) 0
x(5,4,51,4,52) 0
x(5,6,51,1,55) 0
x(5,1,52,4,55) 0
x(5,1,52,1,53) 0
x(5,4,52,4,53) 0
x(5,1,53,4,56) 0
x(5,1,53,1,54) 0
x(5,4,53,4,54) 0
x(5,1,54,4,57) 0
x(5,1,54,1,55) 0
x(5,4,54,4,55) 0
x(5,1,55,4,58) 0
x(5,4,55,4,56) 0
x(5,4,56,4,57) 0
x(5,4,57,4,58) 0
x(5,4,58,4,59) 0
x(6,2,0,4,3) 0
x(6,2,0,2,1) 1
x(6,2,1,4,4) 0
x(6,2,1,2,2) 1
x(6,2,2,4,5) 0
x(6,2,2,2,3) 1
x(6,2,3,4,6) 0
x(6,2,3,2,4) 1
x(6,4,3,6,6) 0
x(6,4,3,4,4) 0
x(6,2,4,4,7) 0
x(6,2,4,2,5) 1
x(6,4,4,6,7) 0
x(6,4,4,4,5) 0
x(6,2,5,4,8) 0
x(6,2,5,2,6) 1
x(6,4,5,6,8) 0
x(6,4,5,4,6) 0
x(6,2,6,4,9) 0
x(6,2,6,2,7) 1
x(6,4,6,6,9) 0
x(6,4,6,4,7) 0
x(6,6,6,1,15) 0
x(6,6,6,6,7) 0
x(6,2,7,4,10) 0
x(6,2,7,2,8) 1
x(6,4,7,6,10) 0
x(6,4,7,4,8) 0
x(6,6,7,1,16) 0
x(6,6,7,6,8) 0
x(6,2,8,4,11) 0
x(6,2,8,2,9) 1
x(6,4,8,6,11) 0
x(6,4,8,4,9) 0
x(6,6,8,1,17) 0
x(6,6,8,6,9) 0
x(6,2,9,4,12) 0
x(6,2,9,2,10) 1
x(6,4,9,6,12) 0
x(6,4,9,4,10) 0
x(6,6,9,1,18) 0
x(6,6,9,6,10) 0
x(6,2,10,4,13) 0
x(6,2,10,2,11) 1
x(6,4,10,6,13) 0
x(6,4,10,4,11) 0
x(6,6,10,1,19) 0
x(6,6,10,6,11) 0
x(6,2,11,4,14) 0
x(6,2,11,2,12) 1
x(6,4,11,6,14) 0
x(6,4,11,4,12) 0
x(6,6,11,1,20) 0
x(6,6,11,6,12) 0
x(6,2,12,4,15) 0
x(6,2,12,2,13) 1
x(6,4,12,6,15) 0
x(6,4,12,4,13) 0
x(6,6,12,1,21) 0
x(6,6,12,6,13) 0
x(6,2,13,4,16) 1
x(6,2,13,2,14) 0
x(6,4,13,6,16) 0
x(6,4,13,4,14) 0
x(6,6,13,1,22) 0
x(6,6,13,6,14) 0
x(6,2,14,4,17) 0
x(6,2,14,2,15) 0
x(6,4,14,6,17) 0
x(6,4,14,4,15) 0
x(6,6,14,1,23) 0
x(6,6,14,6,15) 0
x(6,1,15,5,25) 0
x(6,1,15,1,16) 0
x(6,2,15,4,18) 0
x(6,2,15,2,16) 0
x(6,4,15,6,18) 0
x(6,4,15,4,16) 0
x(6,6,15,1,24) 0
x(6,6,15,6,16) 0
x(6,1,16,5,26) 0
x(6,1,16,1,17) 0
x(6,2,16,4,19) 0
x(6,2,16,2,17) 0
x(6,4,16,6,19) 1
x(6,4,16,4,17) 0
x(6,6,16,1,25) 0
x(6,6,16,6,17) 0
x(6,1,17,5,27) 0
x(6,1,17,1,18) 0
x(6,2,17,4,20) 0
x(6,2,17,2,18) 0
x(6,4,17,6,20) 0
x(6,4,17,4,18) 0
x(6,6,17,1,26) 0
x(6,6,17,6,18) 0
x(6,1,18,5,28) 0
x(6,1,18,1,19) 0
x(6,2,18,4,21) 0
x(6,2,18,2,19) 0
x(6,4,18,6,21) 0
x(6,4,18,4,19) 0
x(6,6,18,1,27) 0
x(6,6,18,6,19) 0
x(6,1,19,5,29) 0
x(6,1,19,1,20) 0
x(6,2,19,4,22) 0
x(6,2,19,2,20) 0
x(6,4,19,6,22) 0
x(6,4,19,4,20) 0
x(6,6,19,1,28) 1
x(6,6,19,6,20) 0
x(6,1,20,5,30) 0
x(6,1,20,1,21) 0
x(6,2,20,4,23) 0
x(6,2,20,2,21) 0
x(6,4,20,6,23) 0
x(6,4,20,4,21) 0
x(6,6,20,1,29) 0
x(6,6,20,6,21) 0
x(6,1,21,5,31) 0
x(6,1,21,1,22) 0
x(6,2,21,4,24) 0
x(6,2,21,2,22) 0
x(6,4,21,6,24) 0
x(6,4,21,4,22) 0
x(6,6,21,1,30) 0
x(6,6,21,6,22) 0
x(6,1,22,5,32) 0
x(6,1,22,1,23) 0
x(6,2,22,4,25) 0
x(6,2,22,2,23) 0
x(6,4,22,6,25) 0
x(6,4,22,4,23) 0
x(6,6,22,1,31) 0
x(6,6,22,6,23) 0
x(6,1,23,5,33) 0
x(6,1,23,1,24) 0
x(6,2,23,4,26) 0
x(6,2,23,2,24) 0
x(6,4,23,6,26) 0
x(6,4,23,4,24) 0
x(6,6,23,1,32) 0
x(6,6,23,6,24) 0
x(6,1,24,5,34) 0
x(6,1,24,1,25) 0
x(6,2,24,4,27) 0
x(6,2,24,2,25) 0
x(6,4,24,6,27) 0
x(6,4,24,4,25) 0
x(6,6,24,1,33) 0
x(6,6,24,6,25) 0
x(6,1,25,5,35) 0
x(6,1,25,1,26) 0
x(6,2,25,4,28) 0
x(6,2,25,2,26) 0
x(6,4,25,6,28) 0
x(6,4,25,4,26) 0
x(6,5,25,3,29) 0
x(6,5,25,5,26) 0
x(6,6,25,1,34) 0
x(6,6,25,6,26) 0
x(6,1,26,5,36) 0
x(6,1,26,1,27) 0
x(6,2,26,4,29) 0
x(6,2,26,2,27) 0
x(6,4,26,6,29) 0
x(6,4,26,4,27) 0
x(6,5,26,3,30) 0
x(6,5,26,5,27) 0
x(6,6,26,1,35) 0
x(6,6,26,6,27) 0
x(6,1,27,5,37) 0
x(6,1,27,1,28) 0
x(6,2,27,4,30) 0
x(6,2,27,2,28) 0
x(6,4,27,6,30) 0
x(6,4,27,4,28) 0
x(6,5,27,3,31) 0
x(6,5,27,5,28) 0
x(6,6,27,1,36) 0
x(6,6,27,6,28) 0
x(6,1,28,5,38) 1
x(6,1,28,1,29) 0
x(6,2,28,4,31) 0
x(6,2,28,2,29) 0
x(6,4,28,6,31) 0
x(6,4,28,4,29) 0
x(6,5,28,3,32) 0
x(6,5,28,5,29) 0
x(6,6,28,1,37) 0
x(6,6,28,6,29) 0
x(6,1,29,5,39) 0
x(6,1,29,1,30) 0
x(6,2,29,4,32) 0
x(6,3,29,3,30) 0
x(6,4,29,6,32) 0
x(6,4,29,4,30) 0
x(6,5,29,3,33) 0
x(6,5,29,5,30) 0
x(6,6,29,1,38) 0
x(6,6,29,6,30) 0
x(6,1,30,5,40) 0
x(6,1,30,1,31) 0
x(6,3,30,3,31) 0
x(6,4,30,6,33) 0
x(6,4,30,4,31) 0
x(6,5,30,3,34) 0
x(6,5,30,5,31) 0
x(6,6,30,1,39) 0
x(6,6,30,6,31) 0
x(6,1,31,5,41) 0
x(6,1,31,1,32) 0
x(6,3,31,3,32) 0
x(6,4,31,6,34) 0
x(6,4,31,4,32) 0
x(6,5,31,3,35) 0
x(6,5,31,5,32) 0
x(6,6,31,1,40) 0
x(6,6,31,6,32) 0
x(6,1,32,5,42) 0
x(6,1,32,1,33) 0
x(6,3,32,3,33) 0
x(6,4,32,6,35) 0
x(6,5,32,3,36) 0
x(6,5,32,5,33) 0
x(6,6,32,1,41) 0
x(6,6,32,6,33) 0
x(6,1,33,5,43) 0
x(6,1,33,1,34) 0
x(6,3,33,3,34) 0
x(6,5,33,3,37) 0
x(6,5,33,5,34) 0
x(6,6,33,1,42) 0
x(6,6,33,6,34) 0
x(6,1,34,5,44) 0
x(6,1,34,1,35) 0
x(6,3,34,3,35) 0
x(6,5,34,3,38) 0
x(6,5,34,5,35) 0
x(6,6,34,1,43) 0
x(6,6,34,6,35) 0
x(6,1,35,5,45) 0
x(6,1,35,1,36) 0
x(6,3,35,3,36) 0
x(6,5,35,3,39) 0
x(6,5,35,5,36) 0
x(6,6,35,1,44) 0
x(6,1,36,5,46) 0
x(6,1,36,1,37) 0
x(6,3,36,3,37) 0
x(6,5,36,3,40) 0
x(6,5,36,5,37) 0
x(6,1,37,5,47) 0
x(6,1,37,1,38) 0
x(6,3,37,3,38) 0
x(6,5,37,3,41) 0
x(6,5,37,5,38) 0
x(6,1,38,5,48) 0
x(6,1,38,1,39) 0
x(6,3,38,3,39) 0
x(6,5,38,3,42) 1
x(6,5,38,5,39) 0
x(6,1,39,5,49) 0
x(6,1,39,1,40) 0
x(6,3,39,3,40) 0
x(6,5,39,3,43) 0
x(6,5,39,5,40) 0
x(6,1,40,5,50) 0
x(6,1,40,1,41) 0
x(6,3,40,3,41) 0
x(6,5,40,3,44) 0
x(6,5,40,5,41) 0
x(6,1,41,5,51) 0
x(6,1,41,1,42) 0
x(6,3,41,3,42) 0
x(6,5,41,3,45) 0
x(6,5,41,5,42) 0
x(6,1,42,5,52) 0
x(6,1,42,1,43) 0
x(6,3,42,3,43) 0
x(6,5,42,3,46) 0
x(6,5,42,5,43) 0
x(6,1,43,5,53) 0
x(6,1,43,1,44) 0
x(6,3,43,3,44) 0
x(6,5,43,3,47) 0
x(6,5,43,5,44) 0
x(6,1,44,5,54) 0
x(6,3,44,3,45) 0
x(6,5,44,3,48) 0
x(6,5,44,5,45) 0
x(6,3,45,3,46) 0
x(6,5,45,3,49) 0
x(6,5,45,5,46) 0
x(6,3,46,3,47) 0
x(6,5,46,3,50) 0
x(6,5,46,5,47) 0
x(6,3,47,3,48) 0
x(6,5,47,3,51) 0
x(6,5,47,5,48) 0
x(6,3,48,3,49) 0
x(6,5,48,3,52) 0
x(6,5,48,5,49) 0
x(6,3,49,3,50) 0
x(6,5,49,3,53) 0
x(6,5,49,5,50) 0
x(6,3,50,3,51) 0
x(6,5,50,3,54) 0
x(6,5,50,5,51) 0
x(6,3,51,3,52) 0
x(6,5,51,3,55) 0
x(6,5,51,5,52) 0
x(6,3,52,3,53) 0
x(6,5,52,3,56) 0
x(6,5,52,5,53) 0
x(6,3,53,3,54) 0
x(6,5,53,3,57) 0
x(6,5,53,5,54) 0
x(6,3,54,3,55) 0
x(6,5,54,3,58) 0
x(6,3,55,3,56) 0
x(6,3,56,3,57) 0
x(6,3,57,3,58) 0
x(6,3,58,3,59) 0
